p cnf 44 123
a 1 20 0
e 2 3 4 5 6 7 8 9 10 11 12 13 14 15 16 17 18 19 21 22 23 24 25 26 27 28 29 30 31 32 33 34 35 36 37 38 39 40 41 42 43 44 0
1 -2 -3 0
-1 2 -3 0
1 2 3 0
-1 -2 3 0
-5 -4 0
-5 4 0
-3 -5 -6 0
3 5 -6 0
-3 5 6 0
3 -5 6 0
-2 1 -7 0
2 -1 -7 0
-2 -1 7 0
2 1 7 0
8 6 0
8 -7 0
-6 7 -8 0
10 -8 0
10 -9 0
8 9 -10 0
12 13 -14 0
-12 -13 -14 0
12 -13 14 0
-12 13 14 0
15 11 0
15 -14 0
-11 14 -15 0
16 -10 0
16 -15 0
10 15 -16 0
17 8 0
17 -8 0
11 18 -19 0
-11 -18 -19 0
11 -18 19 0
-11 18 19 0
-20 17 0
-20 -19 0
-17 19 20 0
11 21 0
-11 21 0
-23 22 0
-23 -3 0
-22 3 23 0
-24 23 0
-24 -4 0
-23 4 24 0
25 24 0
25 21 0
-24 -21 -25 0
-26 -21 0
-26 25 0
21 -25 26 0
-27 -26 0
-27 1 0
26 -1 27 0
-1 2 -28 0
1 -2 -28 0
-1 -2 28 0
1 2 28 0
-29 27 0
-29 28 0
-27 -28 29 0
7 28 -30 0
-7 -28 -30 0
7 -28 30 0
-7 28 30 0
-32 8 0
-32 31 0
-8 -31 32 0
-33 -30 0
-33 -32 0
30 32 33 0
34 -25 0
34 -5 0
25 5 -34 0
-33 34 -35 0
33 -34 -35 0
-33 -34 35 0
33 34 35 0
36 6 0
36 -3 0
-6 3 -36 0
35 -36 -37 0
-35 36 -37 0
35 36 37 0
-35 -36 37 0
-29 -37 -38 0
29 37 -38 0
-29 37 38 0
29 -37 38 0
39 -13 0
39 28 0
13 -28 -39 0
38 -39 -40 0
-38 39 -40 0
38 39 40 0
-38 -39 40 0
-41 -20 0
-41 -40 0
20 40 41 0
42 -16 0
42 41 0
16 -41 -42 0
43 14 0
43 -8 0
-14 8 -43 0
42 -43 -44 0
-42 43 -44 0
42 43 44 0
-42 -43 44 0
13 -11 -18 20 36 -3 0
32 -11 -40 -17 -29 41 -35 0
-32 7 -17 18 -16 36 0
32 -8 17 39 9 -16 -38 0
-14 20 -2 34 38 5 0
27 -23 25 -3 -6 12 0
34 -44 -31 0
28 23 -38 -7 35 -33 22 0
36 37 -30 0
12 -27 -41 -42 9 4 16 0
17 -18 4 -8 -43 -29 0
44 0
